;; Mutation-Based Equivalence Benchmark
;; Source:     AutomatArk / instance02112.smt2
;; Mutations:  range_expand_hi
;; Status:     sat
;;
;; Original regex vs mutated regex
;; Equivalence check: unsat ⟺ L(R1) = L(R2)

(set-info :smt-lib-version 2.6)
(set-info :category "mutation")
(set-info :status sat)
(set-logic QF_S)

(declare-const x String)

;; R1: original
;; R2: mutated (range_expand_hi)
(assert
  (str.in_re x
    (re.union (re.inter (re.++ (str.to_re "<a") (re.* (re.union (re.range "a" "z") (re.range "A" "Z") (re.range "0" "9") (str.to_re " ") (str.to_re "=") (str.to_re "\u{22}") (str.to_re "'") (str.to_re ".") (str.to_re ":") (str.to_re ";") (str.to_re "?"))) (re.* (re.++ (str.to_re "href=") (re.union (str.to_re "\u{22}") (str.to_re "'")) (re.opt (re.union (str.to_re "http://") (str.to_re "./") (str.to_re "/"))) (re.+ (re.union (re.range "0" "9") (re.range "A" "Z") (re.range "a" "z") (str.to_re "_"))) (re.* (re.++ (str.to_re ".") (re.+ (re.union (re.range "0" "9") (re.range "A" "Z") (re.range "a" "z") (str.to_re "_"))))) (re.* (re.++ (str.to_re "/") (re.+ (re.union (re.range "0" "9") (re.range "A" "Z") (re.range "a" "z") (str.to_re "_"))) (re.opt (re.++ (str.to_re ".") (re.+ (re.union (re.range "0" "9") (re.range "A" "Z") (re.range "a" "z") (str.to_re "_"))))))) (re.opt (re.union (str.to_re "/") (re.++ (str.to_re "?") (re.* (re.union (re.range "0" "9") (re.range "A" "Z") (re.range "a" "z") (str.to_re "_"))) (str.to_re "=") (re.* (re.union (re.range "0" "9") (re.range "A" "Z") (re.range "a" "z") (str.to_re "_"))) (re.* (re.++ (str.to_re "&") (re.* (re.union (re.range "0" "9") (re.range "A" "Z") (re.range "a" "z") (str.to_re "_"))) (str.to_re "=") (re.* (re.union (re.range "0" "9") (re.range "A" "Z") (re.range "a" "z") (str.to_re "_")))))))) (re.union (str.to_re "\u{22}") (str.to_re "'")))) (str.to_re "\u{a}>") (re.* (re.union (re.range "a" "z") (re.range "A" "Z") (re.range "0" "9") (str.to_re " ") (str.to_re "=") (str.to_re "\u{22}") (str.to_re "'") (str.to_re "<") (str.to_re ">") (str.to_re ".") (str.to_re ":") (str.to_re ";") (str.to_re "?"))) (str.to_re "</a>")) (re.comp (re.++ (str.to_re "<a") (re.* (re.union (re.range "a" "z") (re.range "A" "Z") (re.range "0" "9") (str.to_re " ") (str.to_re "=") (str.to_re "\u{22}") (str.to_re "'") (str.to_re ".") (str.to_re ":") (str.to_re ";") (str.to_re "?"))) (re.* (re.++ (str.to_re "href=") (re.union (str.to_re "\u{22}") (str.to_re "'")) (re.opt (re.union (str.to_re "http://") (str.to_re "./") (str.to_re "/"))) (re.+ (re.union (re.range "0" "9") (re.range "A" "Z") (re.range "a" "z") (str.to_re "_"))) (re.* (re.++ (str.to_re ".") (re.+ (re.union (re.range "0" "9") (re.range "A" "Z") (re.range "a" "z") (str.to_re "_"))))) (re.* (re.++ (str.to_re "/") (re.+ (re.union (re.range "0" "9") (re.range "A" "Z") (re.range "a" "z") (str.to_re "_"))) (re.opt (re.++ (str.to_re ".") (re.+ (re.union (re.range "0" "9") (re.range "A" "Z") (re.range "a" "z") (str.to_re "_"))))))) (re.opt (re.union (str.to_re "/") (re.++ (str.to_re "?") (re.* (re.union (re.range "0" "9") (re.range "A" "Z") (re.range "a" "z") (str.to_re "_"))) (str.to_re "=") (re.* (re.union (re.range "0" "9") (re.range "A" "Z") (re.range "a" "z") (str.to_re "_"))) (re.* (re.++ (str.to_re "&") (re.* (re.union (re.range "0" "9") (re.range "A" "[") (re.range "a" "z") (str.to_re "_"))) (str.to_re "=") (re.* (re.union (re.range "0" "9") (re.range "A" "Z") (re.range "a" "z") (str.to_re "_")))))))) (re.union (str.to_re "\u{22}") (str.to_re "'")))) (str.to_re "\u{a}>") (re.* (re.union (re.range "a" "z") (re.range "A" "Z") (re.range "0" "9") (str.to_re " ") (str.to_re "=") (str.to_re "\u{22}") (str.to_re "'") (str.to_re "<") (str.to_re ">") (str.to_re ".") (str.to_re ":") (str.to_re ";") (str.to_re "?"))) (str.to_re "</a>")))) (re.inter (re.comp (re.++ (str.to_re "<a") (re.* (re.union (re.range "a" "z") (re.range "A" "Z") (re.range "0" "9") (str.to_re " ") (str.to_re "=") (str.to_re "\u{22}") (str.to_re "'") (str.to_re ".") (str.to_re ":") (str.to_re ";") (str.to_re "?"))) (re.* (re.++ (str.to_re "href=") (re.union (str.to_re "\u{22}") (str.to_re "'")) (re.opt (re.union (str.to_re "http://") (str.to_re "./") (str.to_re "/"))) (re.+ (re.union (re.range "0" "9") (re.range "A" "Z") (re.range "a" "z") (str.to_re "_"))) (re.* (re.++ (str.to_re ".") (re.+ (re.union (re.range "0" "9") (re.range "A" "Z") (re.range "a" "z") (str.to_re "_"))))) (re.* (re.++ (str.to_re "/") (re.+ (re.union (re.range "0" "9") (re.range "A" "Z") (re.range "a" "z") (str.to_re "_"))) (re.opt (re.++ (str.to_re ".") (re.+ (re.union (re.range "0" "9") (re.range "A" "Z") (re.range "a" "z") (str.to_re "_"))))))) (re.opt (re.union (str.to_re "/") (re.++ (str.to_re "?") (re.* (re.union (re.range "0" "9") (re.range "A" "Z") (re.range "a" "z") (str.to_re "_"))) (str.to_re "=") (re.* (re.union (re.range "0" "9") (re.range "A" "Z") (re.range "a" "z") (str.to_re "_"))) (re.* (re.++ (str.to_re "&") (re.* (re.union (re.range "0" "9") (re.range "A" "Z") (re.range "a" "z") (str.to_re "_"))) (str.to_re "=") (re.* (re.union (re.range "0" "9") (re.range "A" "Z") (re.range "a" "z") (str.to_re "_")))))))) (re.union (str.to_re "\u{22}") (str.to_re "'")))) (str.to_re "\u{a}>") (re.* (re.union (re.range "a" "z") (re.range "A" "Z") (re.range "0" "9") (str.to_re " ") (str.to_re "=") (str.to_re "\u{22}") (str.to_re "'") (str.to_re "<") (str.to_re ">") (str.to_re ".") (str.to_re ":") (str.to_re ";") (str.to_re "?"))) (str.to_re "</a>"))) (re.++ (str.to_re "<a") (re.* (re.union (re.range "a" "z") (re.range "A" "Z") (re.range "0" "9") (str.to_re " ") (str.to_re "=") (str.to_re "\u{22}") (str.to_re "'") (str.to_re ".") (str.to_re ":") (str.to_re ";") (str.to_re "?"))) (re.* (re.++ (str.to_re "href=") (re.union (str.to_re "\u{22}") (str.to_re "'")) (re.opt (re.union (str.to_re "http://") (str.to_re "./") (str.to_re "/"))) (re.+ (re.union (re.range "0" "9") (re.range "A" "Z") (re.range "a" "z") (str.to_re "_"))) (re.* (re.++ (str.to_re ".") (re.+ (re.union (re.range "0" "9") (re.range "A" "Z") (re.range "a" "z") (str.to_re "_"))))) (re.* (re.++ (str.to_re "/") (re.+ (re.union (re.range "0" "9") (re.range "A" "Z") (re.range "a" "z") (str.to_re "_"))) (re.opt (re.++ (str.to_re ".") (re.+ (re.union (re.range "0" "9") (re.range "A" "Z") (re.range "a" "z") (str.to_re "_"))))))) (re.opt (re.union (str.to_re "/") (re.++ (str.to_re "?") (re.* (re.union (re.range "0" "9") (re.range "A" "Z") (re.range "a" "z") (str.to_re "_"))) (str.to_re "=") (re.* (re.union (re.range "0" "9") (re.range "A" "Z") (re.range "a" "z") (str.to_re "_"))) (re.* (re.++ (str.to_re "&") (re.* (re.union (re.range "0" "9") (re.range "A" "[") (re.range "a" "z") (str.to_re "_"))) (str.to_re "=") (re.* (re.union (re.range "0" "9") (re.range "A" "Z") (re.range "a" "z") (str.to_re "_")))))))) (re.union (str.to_re "\u{22}") (str.to_re "'")))) (str.to_re "\u{a}>") (re.* (re.union (re.range "a" "z") (re.range "A" "Z") (re.range "0" "9") (str.to_re " ") (str.to_re "=") (str.to_re "\u{22}") (str.to_re "'") (str.to_re "<") (str.to_re ">") (str.to_re ".") (str.to_re ":") (str.to_re ";") (str.to_re "?"))) (str.to_re "</a>"))))))

(check-sat)
(exit)
